MLW02
Position Depot: Center
Horizon for Depot: Large
Position of customers: Mixt
Distribution of the demand: Medium
Width of time windows: Wide
Distribution of the service: Small

VEHICLE 
NUMBER 	 CAPACITY 
 8 	 	 107 
 
CUSTOMER
CUST NO. 	 XCOORD.  	 YCOORD. 	 DEMAND 	 READY TIME 	 DUE DATE 	 SERVICE TIME 
 0 	 	 500 	 	 500 	 	 0 	 	 0 	 	 4539 	 	 0 
  1 	 	 839 	 	 383 	 	 77 	 	 3344 	 	 3617 	 	 58 
  2 	 	 616 	 	 190 	 	 2 	 	 1063 	 	 1528 	 	 73 
  3 	 	 462 	 	 324 	 	 8 	 	 1860 	 	 2231 	 	 73 
  4 	 	 618 	 	 830 	 	 10 	 	 39 	 	 385 	 	 66 
  5 	 	 550 	 	 431 	 	 6 	 	 1311 	 	 1601 	 	 81 
  6 	 	 876 	 	 459 	 	 4 	 	 1038 	 	 1527 	 	 75 
  7 	 	 596 	 	 184 	 	 8 	 	 487 	 	 804 	 	 91 
  8 	 	 585 	 	 390 	 	 5 	 	 533 	 	 913 	 	 57 
  9 	 	 828 	 	 415 	 	 2 	 	 509 	 	 966 	 	 62 
  10 	 	 810 	 	 448 	 	 2 	 	 3550 	 	 4014 	 	 50 
  11 	 	 566 	 	 456 	 	 2 	 	 3086 	 	 3438 	 	 78 
  12 	 	 616 	 	 175 	 	 1 	 	 3617 	 	 4045 	 	 58 
  13 	 	 513 	 	 802 	 	 62 	 	 932 	 	 1432 	 	 76 
  14 	 	 533 	 	 265 	 	 8 	 	 3710 	 	 4154 	 	 53 
  15 	 	 435 	 	 317 	 	 56 	 	 2207 	 	 2447 	 	 71 
  16 	 	 867 	 	 427 	 	 4 	 	 2411 	 	 2680 	 	 55 
  17 	 	 680 	 	 852 	 	 8 	 	 360 	 	 610 	 	 96 
  18 	 	 572 	 	 241 	 	 58 	 	 3658 	 	 4135 	 	 56 
  19 	 	 510 	 	 215 	 	 3 	 	 -67 	 	 313 	 	 54 
  20 	 	 610 	 	 263 	 	 9 	 	 1003 	 	 1483 	 	 92 
  21 	 	 703 	 	 39 	 	 68 	 	 3404 	 	 3637 	 	 88 
  22 	 	 540 	 	 435 	 	 7 	 	 3419 	 	 3653 	 	 95 
  23 	 	 445 	 	 277 	 	 4 	 	 204 	 	 622 	 	 67 
  24 	 	 655 	 	 261 	 	 3 	 	 2756 	 	 3137 	 	 75 
  25 	 	 803 	 	 444 	 	 8 	 	 1780 	 	 2212 	 	 95 
  26 	 	 66 	 	 984 	 	 98 	 	 1632 	 	 1857 	 	 59 
  27 	 	 896 	 	 522 	 	 3 	 	 1840 	 	 2308 	 	 56 
  28 	 	 89 	 	 771 	 	 7 	 	 2663 	 	 2921 	 	 97 
  29 	 	 769 	 	 150 	 	 70 	 	 3341 	 	 3650 	 	 84 
  30 	 	 211 	 	 226 	 	 3 	 	 709 	 	 1178 	 	 93 
  31 	 	 114 	 	 136 	 	 70 	 	 382 	 	 583 	 	 61 
  32 	 	 284 	 	 324 	 	 61 	 	 240 	 	 494 	 	 75 
  33 	 	 975 	 	 421 	 	 7 	 	 2880 	 	 3375 	 	 76 
  34 	 	 386 	 	 830 	 	 5 	 	 1298 	 	 1731 	 	 88 
  35 	 	 223 	 	 407 	 	 6 	 	 1616 	 	 2058 	 	 63 
  36 	 	 790 	 	 761 	 	 2 	 	 1057 	 	 1351 	 	 58 
  37 	 	 204 	 	 746 	 	 9 	 	 1054 	 	 1309 	 	 83 
  38 	 	 210 	 	 601 	 	 8 	 	 1836 	 	 2095 	 	 67 
  39 	 	 624 	 	 792 	 	 1 	 	 1808 	 	 2074 	 	 73 
  40 	 	 324 	 	 51 	 	 1 	 	 3724 	 	 3999 	 	 66 
  41 	 	 755 	 	 194 	 	 66 	 	 3046 	 	 3286 	 	 98 
  42 	 	 809 	 	 497 	 	 9 	 	 386 	 	 766 	 	 60 
  43 	 	 5 	 	 251 	 	 7 	 	 2479 	 	 2805 	 	 70 
  44 	 	 368 	 	 277 	 	 7 	 	 4229 	 	 4483 	 	 78 
  45 	 	 232 	 	 323 	 	 4 	 	 2317 	 	 2798 	 	 86 
  46 	 	 573 	 	 258 	 	 5 	 	 4009 	 	 4456 	 	 93 
  47 	 	 170 	 	 874 	 	 2 	 	 3385 	 	 3832 	 	 84 
  48 	 	 893 	 	 857 	 	 5 	 	 1057 	 	 1361 	 	 56 
  49 	 	 240 	 	 623 	 	 1 	 	 2492 	 	 2915 	 	 67 
  50 	 	 692 	 	 279 	 	 8 	 	 4051 	 	 4440 	 	 80 
 